p cnf 102 1791
4 7 11 16 22 29 37 46 56 67 79 92 106 121 137 154 172 0
8 12 17 23 30 38 47 57 68 80 93 107 122 138 155 173 192 0
13 18 24 31 39 48 58 69 81 94 108 123 139 156 174 193 213 0
19 25 32 40 49 59 70 82 95 109 124 140 157 175 194 214 235 0
26 33 41 50 60 71 83 96 110 125 141 158 176 195 215 236 258 0
34 42 51 61 72 84 97 111 126 142 159 177 196 216 237 259 282 0
-4 -8 0
-7 -12 0
-11 -17 0
-16 -23 0
-22 -30 0
-29 -38 0
-37 -47 0
-46 -57 0
-56 -68 0
-67 -80 0
-79 -93 0
-92 -107 0
-106 -122 0
-121 -138 0
-137 -155 0
-154 -173 0
-172 -192 0
-4 -13 0
-7 -18 0
-11 -24 0
-16 -31 0
-22 -39 0
-29 -48 0
-37 -58 0
-46 -69 0
-56 -81 0
-67 -94 0
-79 -108 0
-92 -123 0
-106 -139 0
-121 -156 0
-137 -174 0
-154 -193 0
-172 -213 0
-4 -19 0
-7 -25 0
-11 -32 0
-16 -40 0
-22 -49 0
-29 -59 0
-37 -70 0
-46 -82 0
-56 -95 0
-67 -109 0
-79 -124 0
-92 -140 0
-106 -157 0
-121 -175 0
-137 -194 0
-154 -214 0
-172 -235 0
-4 -26 0
-7 -33 0
-11 -41 0
-16 -50 0
-22 -60 0
-29 -71 0
-37 -83 0
-46 -96 0
-56 -110 0
-67 -125 0
-79 -141 0
-92 -158 0
-106 -176 0
-121 -195 0
-137 -215 0
-154 -236 0
-172 -258 0
-4 -34 0
-7 -42 0
-11 -51 0
-16 -61 0
-22 -72 0
-29 -84 0
-37 -97 0
-46 -111 0
-56 -126 0
-67 -142 0
-79 -159 0
-92 -177 0
-106 -196 0
-121 -216 0
-137 -237 0
-154 -259 0
-172 -282 0
-8 -13 0
-12 -18 0
-17 -24 0
-23 -31 0
-30 -39 0
-38 -48 0
-47 -58 0
-57 -69 0
-68 -81 0
-80 -94 0
-93 -108 0
-107 -123 0
-122 -139 0
-138 -156 0
-155 -174 0
-173 -193 0
-192 -213 0
-8 -19 0
-12 -25 0
-17 -32 0
-23 -40 0
-30 -49 0
-38 -59 0
-47 -70 0
-57 -82 0
-68 -95 0
-80 -109 0
-93 -124 0
-107 -140 0
-122 -157 0
-138 -175 0
-155 -194 0
-173 -214 0
-192 -235 0
-8 -26 0
-12 -33 0
-17 -41 0
-23 -50 0
-30 -60 0
-38 -71 0
-47 -83 0
-57 -96 0
-68 -110 0
-80 -125 0
-93 -141 0
-107 -158 0
-122 -176 0
-138 -195 0
-155 -215 0
-173 -236 0
-192 -258 0
-8 -34 0
-12 -42 0
-17 -51 0
-23 -61 0
-30 -72 0
-38 -84 0
-47 -97 0
-57 -111 0
-68 -126 0
-80 -142 0
-93 -159 0
-107 -177 0
-122 -196 0
-138 -216 0
-155 -237 0
-173 -259 0
-192 -282 0
-13 -19 0
-18 -25 0
-24 -32 0
-31 -40 0
-39 -49 0
-48 -59 0
-58 -70 0
-69 -82 0
-81 -95 0
-94 -109 0
-108 -124 0
-123 -140 0
-139 -157 0
-156 -175 0
-174 -194 0
-193 -214 0
-213 -235 0
-13 -26 0
-18 -33 0
-24 -41 0
-31 -50 0
-39 -60 0
-48 -71 0
-58 -83 0
-69 -96 0
-81 -110 0
-94 -125 0
-108 -141 0
-123 -158 0
-139 -176 0
-156 -195 0
-174 -215 0
-193 -236 0
-213 -258 0
-13 -34 0
-18 -42 0
-24 -51 0
-31 -61 0
-39 -72 0
-48 -84 0
-58 -97 0
-69 -111 0
-81 -126 0
-94 -142 0
-108 -159 0
-123 -177 0
-139 -196 0
-156 -216 0
-174 -237 0
-193 -259 0
-213 -282 0
-19 -26 0
-25 -33 0
-32 -41 0
-40 -50 0
-49 -60 0
-59 -71 0
-70 -83 0
-82 -96 0
-95 -110 0
-109 -125 0
-124 -141 0
-140 -158 0
-157 -176 0
-175 -195 0
-194 -215 0
-214 -236 0
-235 -258 0
-19 -34 0
-25 -42 0
-32 -51 0
-40 -61 0
-49 -72 0
-59 -84 0
-70 -97 0
-82 -111 0
-95 -126 0
-109 -142 0
-124 -159 0
-140 -177 0
-157 -196 0
-175 -216 0
-194 -237 0
-214 -259 0
-235 -282 0
-26 -34 0
-33 -42 0
-41 -51 0
-50 -61 0
-60 -72 0
-71 -84 0
-83 -97 0
-96 -111 0
-110 -126 0
-125 -142 0
-141 -159 0
-158 -177 0
-176 -196 0
-195 -216 0
-215 -237 0
-236 -259 0
-258 -282 0
-4 -12 0
-4 -30 0
-4 -38 0
-4 -47 0
-4 -173 0
-4 -192 0
-7 -23 0
-7 -57 0
-7 -68 0
-7 -93 0
-7 -122 0
-7 -173 0
-11 -23 0
-11 -38 0
-11 -80 0
-11 -155 0
-11 -173 0
-11 -192 0
-16 -38 0
-16 -68 0
-16 -107 0
-16 -138 0
-22 -38 0
-22 -68 0
-22 -80 0
-22 -122 0
-22 -155 0
-22 -173 0
-22 -192 0
-29 -47 0
-29 -68 0
-29 -107 0
-37 -122 0
-37 -173 0
-46 -80 0
-46 -107 0
-46 -138 0
-46 -155 0
-46 -173 0
-56 -192 0
-67 -93 0
-67 -107 0
-67 -138 0
-67 -173 0
-67 -192 0
-79 -122 0
-79 -138 0
-92 -122 0
-92 -173 0
-121 -192 0
-137 -173 0
-4 -18 0
-4 -39 0
-4 -48 0
-4 -58 0
-4 -193 0
-4 -213 0
-7 -31 0
-7 -69 0
-7 -81 0
-7 -108 0
-7 -139 0
-7 -193 0
-11 -31 0
-11 -48 0
-11 -94 0
-11 -174 0
-11 -193 0
-11 -213 0
-16 -48 0
-16 -81 0
-16 -123 0
-16 -156 0
-22 -48 0
-22 -81 0
-22 -94 0
-22 -139 0
-22 -174 0
-22 -193 0
-22 -213 0
-29 -58 0
-29 -81 0
-29 -123 0
-37 -139 0
-37 -193 0
-46 -94 0
-46 -123 0
-46 -156 0
-46 -174 0
-46 -193 0
-56 -213 0
-67 -108 0
-67 -123 0
-67 -156 0
-67 -193 0
-67 -213 0
-79 -139 0
-79 -156 0
-92 -139 0
-92 -193 0
-121 -213 0
-137 -193 0
-4 -25 0
-4 -49 0
-4 -59 0
-4 -70 0
-4 -214 0
-4 -235 0
-7 -40 0
-7 -82 0
-7 -95 0
-7 -124 0
-7 -157 0
-7 -214 0
-11 -40 0
-11 -59 0
-11 -109 0
-11 -194 0
-11 -214 0
-11 -235 0
-16 -59 0
-16 -95 0
-16 -140 0
-16 -175 0
-22 -59 0
-22 -95 0
-22 -109 0
-22 -157 0
-22 -194 0
-22 -214 0
-22 -235 0
-29 -70 0
-29 -95 0
-29 -140 0
-37 -157 0
-37 -214 0
-46 -109 0
-46 -140 0
-46 -175 0
-46 -194 0
-46 -214 0
-56 -235 0
-67 -124 0
-67 -140 0
-67 -175 0
-67 -214 0
-67 -235 0
-79 -157 0
-79 -175 0
-92 -157 0
-92 -214 0
-121 -235 0
-137 -214 0
-4 -33 0
-4 -60 0
-4 -71 0
-4 -83 0
-4 -236 0
-4 -258 0
-7 -50 0
-7 -96 0
-7 -110 0
-7 -141 0
-7 -176 0
-7 -236 0
-11 -50 0
-11 -71 0
-11 -125 0
-11 -215 0
-11 -236 0
-11 -258 0
-16 -71 0
-16 -110 0
-16 -158 0
-16 -195 0
-22 -71 0
-22 -110 0
-22 -125 0
-22 -176 0
-22 -215 0
-22 -236 0
-22 -258 0
-29 -83 0
-29 -110 0
-29 -158 0
-37 -176 0
-37 -236 0
-46 -125 0
-46 -158 0
-46 -195 0
-46 -215 0
-46 -236 0
-56 -258 0
-67 -141 0
-67 -158 0
-67 -195 0
-67 -236 0
-67 -258 0
-79 -176 0
-79 -195 0
-92 -176 0
-92 -236 0
-121 -258 0
-137 -236 0
-4 -42 0
-4 -72 0
-4 -84 0
-4 -97 0
-4 -259 0
-4 -282 0
-7 -61 0
-7 -111 0
-7 -126 0
-7 -159 0
-7 -196 0
-7 -259 0
-11 -61 0
-11 -84 0
-11 -142 0
-11 -237 0
-11 -259 0
-11 -282 0
-16 -84 0
-16 -126 0
-16 -177 0
-16 -216 0
-22 -84 0
-22 -126 0
-22 -142 0
-22 -196 0
-22 -237 0
-22 -259 0
-22 -282 0
-29 -97 0
-29 -126 0
-29 -177 0
-37 -196 0
-37 -259 0
-46 -142 0
-46 -177 0
-46 -216 0
-46 -237 0
-46 -259 0
-56 -282 0
-67 -159 0
-67 -177 0
-67 -216 0
-67 -259 0
-67 -282 0
-79 -196 0
-79 -216 0
-92 -196 0
-92 -259 0
-121 -282 0
-137 -259 0
-8 -7 0
-8 -22 0
-8 -29 0
-8 -37 0
-8 -154 0
-8 -172 0
-12 -16 0
-12 -46 0
-12 -56 0
-12 -79 0
-12 -106 0
-12 -154 0
-17 -16 0
-17 -29 0
-17 -67 0
-17 -137 0
-17 -154 0
-17 -172 0
-23 -29 0
-23 -56 0
-23 -92 0
-23 -121 0
-30 -29 0
-30 -56 0
-30 -67 0
-30 -106 0
-30 -137 0
-30 -154 0
-30 -172 0
-38 -37 0
-38 -56 0
-38 -92 0
-47 -106 0
-47 -154 0
-57 -67 0
-57 -92 0
-57 -121 0
-57 -137 0
-57 -154 0
-68 -172 0
-80 -79 0
-80 -92 0
-80 -121 0
-80 -154 0
-80 -172 0
-93 -106 0
-93 -121 0
-107 -106 0
-107 -154 0
-138 -172 0
-155 -154 0
-8 -18 0
-8 -39 0
-8 -48 0
-8 -58 0
-8 -193 0
-8 -213 0
-12 -31 0
-12 -69 0
-12 -81 0
-12 -108 0
-12 -139 0
-12 -193 0
-17 -31 0
-17 -48 0
-17 -94 0
-17 -174 0
-17 -193 0
-17 -213 0
-23 -48 0
-23 -81 0
-23 -123 0
-23 -156 0
-30 -48 0
-30 -81 0
-30 -94 0
-30 -139 0
-30 -174 0
-30 -193 0
-30 -213 0
-38 -58 0
-38 -81 0
-38 -123 0
-47 -139 0
-47 -193 0
-57 -94 0
-57 -123 0
-57 -156 0
-57 -174 0
-57 -193 0
-68 -213 0
-80 -108 0
-80 -123 0
-80 -156 0
-80 -193 0
-80 -213 0
-93 -139 0
-93 -156 0
-107 -139 0
-107 -193 0
-138 -213 0
-155 -193 0
-8 -25 0
-8 -49 0
-8 -59 0
-8 -70 0
-8 -214 0
-8 -235 0
-12 -40 0
-12 -82 0
-12 -95 0
-12 -124 0
-12 -157 0
-12 -214 0
-17 -40 0
-17 -59 0
-17 -109 0
-17 -194 0
-17 -214 0
-17 -235 0
-23 -59 0
-23 -95 0
-23 -140 0
-23 -175 0
-30 -59 0
-30 -95 0
-30 -109 0
-30 -157 0
-30 -194 0
-30 -214 0
-30 -235 0
-38 -70 0
-38 -95 0
-38 -140 0
-47 -157 0
-47 -214 0
-57 -109 0
-57 -140 0
-57 -175 0
-57 -194 0
-57 -214 0
-68 -235 0
-80 -124 0
-80 -140 0
-80 -175 0
-80 -214 0
-80 -235 0
-93 -157 0
-93 -175 0
-107 -157 0
-107 -214 0
-138 -235 0
-155 -214 0
-8 -33 0
-8 -60 0
-8 -71 0
-8 -83 0
-8 -236 0
-8 -258 0
-12 -50 0
-12 -96 0
-12 -110 0
-12 -141 0
-12 -176 0
-12 -236 0
-17 -50 0
-17 -71 0
-17 -125 0
-17 -215 0
-17 -236 0
-17 -258 0
-23 -71 0
-23 -110 0
-23 -158 0
-23 -195 0
-30 -71 0
-30 -110 0
-30 -125 0
-30 -176 0
-30 -215 0
-30 -236 0
-30 -258 0
-38 -83 0
-38 -110 0
-38 -158 0
-47 -176 0
-47 -236 0
-57 -125 0
-57 -158 0
-57 -195 0
-57 -215 0
-57 -236 0
-68 -258 0
-80 -141 0
-80 -158 0
-80 -195 0
-80 -236 0
-80 -258 0
-93 -176 0
-93 -195 0
-107 -176 0
-107 -236 0
-138 -258 0
-155 -236 0
-8 -42 0
-8 -72 0
-8 -84 0
-8 -97 0
-8 -259 0
-8 -282 0
-12 -61 0
-12 -111 0
-12 -126 0
-12 -159 0
-12 -196 0
-12 -259 0
-17 -61 0
-17 -84 0
-17 -142 0
-17 -237 0
-17 -259 0
-17 -282 0
-23 -84 0
-23 -126 0
-23 -177 0
-23 -216 0
-30 -84 0
-30 -126 0
-30 -142 0
-30 -196 0
-30 -237 0
-30 -259 0
-30 -282 0
-38 -97 0
-38 -126 0
-38 -177 0
-47 -196 0
-47 -259 0
-57 -142 0
-57 -177 0
-57 -216 0
-57 -237 0
-57 -259 0
-68 -282 0
-80 -159 0
-80 -177 0
-80 -216 0
-80 -259 0
-80 -282 0
-93 -196 0
-93 -216 0
-107 -196 0
-107 -259 0
-138 -282 0
-155 -259 0
-13 -7 0
-13 -22 0
-13 -29 0
-13 -37 0
-13 -154 0
-13 -172 0
-18 -16 0
-18 -46 0
-18 -56 0
-18 -79 0
-18 -106 0
-18 -154 0
-24 -16 0
-24 -29 0
-24 -67 0
-24 -137 0
-24 -154 0
-24 -172 0
-31 -29 0
-31 -56 0
-31 -92 0
-31 -121 0
-39 -29 0
-39 -56 0
-39 -67 0
-39 -106 0
-39 -137 0
-39 -154 0
-39 -172 0
-48 -37 0
-48 -56 0
-48 -92 0
-58 -106 0
-58 -154 0
-69 -67 0
-69 -92 0
-69 -121 0
-69 -137 0
-69 -154 0
-81 -172 0
-94 -79 0
-94 -92 0
-94 -121 0
-94 -154 0
-94 -172 0
-108 -106 0
-108 -121 0
-123 -106 0
-123 -154 0
-156 -172 0
-174 -154 0
-13 -12 0
-13 -30 0
-13 -38 0
-13 -47 0
-13 -173 0
-13 -192 0
-18 -23 0
-18 -57 0
-18 -68 0
-18 -93 0
-18 -122 0
-18 -173 0
-24 -23 0
-24 -38 0
-24 -80 0
-24 -155 0
-24 -173 0
-24 -192 0
-31 -38 0
-31 -68 0
-31 -107 0
-31 -138 0
-39 -38 0
-39 -68 0
-39 -80 0
-39 -122 0
-39 -155 0
-39 -173 0
-39 -192 0
-48 -47 0
-48 -68 0
-48 -107 0
-58 -122 0
-58 -173 0
-69 -80 0
-69 -107 0
-69 -138 0
-69 -155 0
-69 -173 0
-81 -192 0
-94 -93 0
-94 -107 0
-94 -138 0
-94 -173 0
-94 -192 0
-108 -122 0
-108 -138 0
-123 -122 0
-123 -173 0
-156 -192 0
-174 -173 0
-13 -25 0
-13 -49 0
-13 -59 0
-13 -70 0
-13 -214 0
-13 -235 0
-18 -40 0
-18 -82 0
-18 -95 0
-18 -124 0
-18 -157 0
-18 -214 0
-24 -40 0
-24 -59 0
-24 -109 0
-24 -194 0
-24 -214 0
-24 -235 0
-31 -59 0
-31 -95 0
-31 -140 0
-31 -175 0
-39 -59 0
-39 -95 0
-39 -109 0
-39 -157 0
-39 -194 0
-39 -214 0
-39 -235 0
-48 -70 0
-48 -95 0
-48 -140 0
-58 -157 0
-58 -214 0
-69 -109 0
-69 -140 0
-69 -175 0
-69 -194 0
-69 -214 0
-81 -235 0
-94 -124 0
-94 -140 0
-94 -175 0
-94 -214 0
-94 -235 0
-108 -157 0
-108 -175 0
-123 -157 0
-123 -214 0
-156 -235 0
-174 -214 0
-13 -33 0
-13 -60 0
-13 -71 0
-13 -83 0
-13 -236 0
-13 -258 0
-18 -50 0
-18 -96 0
-18 -110 0
-18 -141 0
-18 -176 0
-18 -236 0
-24 -50 0
-24 -71 0
-24 -125 0
-24 -215 0
-24 -236 0
-24 -258 0
-31 -71 0
-31 -110 0
-31 -158 0
-31 -195 0
-39 -71 0
-39 -110 0
-39 -125 0
-39 -176 0
-39 -215 0
-39 -236 0
-39 -258 0
-48 -83 0
-48 -110 0
-48 -158 0
-58 -176 0
-58 -236 0
-69 -125 0
-69 -158 0
-69 -195 0
-69 -215 0
-69 -236 0
-81 -258 0
-94 -141 0
-94 -158 0
-94 -195 0
-94 -236 0
-94 -258 0
-108 -176 0
-108 -195 0
-123 -176 0
-123 -236 0
-156 -258 0
-174 -236 0
-13 -42 0
-13 -72 0
-13 -84 0
-13 -97 0
-13 -259 0
-13 -282 0
-18 -61 0
-18 -111 0
-18 -126 0
-18 -159 0
-18 -196 0
-18 -259 0
-24 -61 0
-24 -84 0
-24 -142 0
-24 -237 0
-24 -259 0
-24 -282 0
-31 -84 0
-31 -126 0
-31 -177 0
-31 -216 0
-39 -84 0
-39 -126 0
-39 -142 0
-39 -196 0
-39 -237 0
-39 -259 0
-39 -282 0
-48 -97 0
-48 -126 0
-48 -177 0
-58 -196 0
-58 -259 0
-69 -142 0
-69 -177 0
-69 -216 0
-69 -237 0
-69 -259 0
-81 -282 0
-94 -159 0
-94 -177 0
-94 -216 0
-94 -259 0
-94 -282 0
-108 -196 0
-108 -216 0
-123 -196 0
-123 -259 0
-156 -282 0
-174 -259 0
-19 -7 0
-19 -22 0
-19 -29 0
-19 -37 0
-19 -154 0
-19 -172 0
-25 -16 0
-25 -46 0
-25 -56 0
-25 -79 0
-25 -106 0
-25 -154 0
-32 -16 0
-32 -29 0
-32 -67 0
-32 -137 0
-32 -154 0
-32 -172 0
-40 -29 0
-40 -56 0
-40 -92 0
-40 -121 0
-49 -29 0
-49 -56 0
-49 -67 0
-49 -106 0
-49 -137 0
-49 -154 0
-49 -172 0
-59 -37 0
-59 -56 0
-59 -92 0
-70 -106 0
-70 -154 0
-82 -67 0
-82 -92 0
-82 -121 0
-82 -137 0
-82 -154 0
-95 -172 0
-109 -79 0
-109 -92 0
-109 -121 0
-109 -154 0
-109 -172 0
-124 -106 0
-124 -121 0
-140 -106 0
-140 -154 0
-175 -172 0
-194 -154 0
-19 -12 0
-19 -30 0
-19 -38 0
-19 -47 0
-19 -173 0
-19 -192 0
-25 -23 0
-25 -57 0
-25 -68 0
-25 -93 0
-25 -122 0
-25 -173 0
-32 -23 0
-32 -38 0
-32 -80 0
-32 -155 0
-32 -173 0
-32 -192 0
-40 -38 0
-40 -68 0
-40 -107 0
-40 -138 0
-49 -38 0
-49 -68 0
-49 -80 0
-49 -122 0
-49 -155 0
-49 -173 0
-49 -192 0
-59 -47 0
-59 -68 0
-59 -107 0
-70 -122 0
-70 -173 0
-82 -80 0
-82 -107 0
-82 -138 0
-82 -155 0
-82 -173 0
-95 -192 0
-109 -93 0
-109 -107 0
-109 -138 0
-109 -173 0
-109 -192 0
-124 -122 0
-124 -138 0
-140 -122 0
-140 -173 0
-175 -192 0
-194 -173 0
-19 -18 0
-19 -39 0
-19 -48 0
-19 -58 0
-19 -193 0
-19 -213 0
-25 -31 0
-25 -69 0
-25 -81 0
-25 -108 0
-25 -139 0
-25 -193 0
-32 -31 0
-32 -48 0
-32 -94 0
-32 -174 0
-32 -193 0
-32 -213 0
-40 -48 0
-40 -81 0
-40 -123 0
-40 -156 0
-49 -48 0
-49 -81 0
-49 -94 0
-49 -139 0
-49 -174 0
-49 -193 0
-49 -213 0
-59 -58 0
-59 -81 0
-59 -123 0
-70 -139 0
-70 -193 0
-82 -94 0
-82 -123 0
-82 -156 0
-82 -174 0
-82 -193 0
-95 -213 0
-109 -108 0
-109 -123 0
-109 -156 0
-109 -193 0
-109 -213 0
-124 -139 0
-124 -156 0
-140 -139 0
-140 -193 0
-175 -213 0
-194 -193 0
-19 -33 0
-19 -60 0
-19 -71 0
-19 -83 0
-19 -236 0
-19 -258 0
-25 -50 0
-25 -96 0
-25 -110 0
-25 -141 0
-25 -176 0
-25 -236 0
-32 -50 0
-32 -71 0
-32 -125 0
-32 -215 0
-32 -236 0
-32 -258 0
-40 -71 0
-40 -110 0
-40 -158 0
-40 -195 0
-49 -71 0
-49 -110 0
-49 -125 0
-49 -176 0
-49 -215 0
-49 -236 0
-49 -258 0
-59 -83 0
-59 -110 0
-59 -158 0
-70 -176 0
-70 -236 0
-82 -125 0
-82 -158 0
-82 -195 0
-82 -215 0
-82 -236 0
-95 -258 0
-109 -141 0
-109 -158 0
-109 -195 0
-109 -236 0
-109 -258 0
-124 -176 0
-124 -195 0
-140 -176 0
-140 -236 0
-175 -258 0
-194 -236 0
-19 -42 0
-19 -72 0
-19 -84 0
-19 -97 0
-19 -259 0
-19 -282 0
-25 -61 0
-25 -111 0
-25 -126 0
-25 -159 0
-25 -196 0
-25 -259 0
-32 -61 0
-32 -84 0
-32 -142 0
-32 -237 0
-32 -259 0
-32 -282 0
-40 -84 0
-40 -126 0
-40 -177 0
-40 -216 0
-49 -84 0
-49 -126 0
-49 -142 0
-49 -196 0
-49 -237 0
-49 -259 0
-49 -282 0
-59 -97 0
-59 -126 0
-59 -177 0
-70 -196 0
-70 -259 0
-82 -142 0
-82 -177 0
-82 -216 0
-82 -237 0
-82 -259 0
-95 -282 0
-109 -159 0
-109 -177 0
-109 -216 0
-109 -259 0
-109 -282 0
-124 -196 0
-124 -216 0
-140 -196 0
-140 -259 0
-175 -282 0
-194 -259 0
-26 -7 0
-26 -22 0
-26 -29 0
-26 -37 0
-26 -154 0
-26 -172 0
-33 -16 0
-33 -46 0
-33 -56 0
-33 -79 0
-33 -106 0
-33 -154 0
-41 -16 0
-41 -29 0
-41 -67 0
-41 -137 0
-41 -154 0
-41 -172 0
-50 -29 0
-50 -56 0
-50 -92 0
-50 -121 0
-60 -29 0
-60 -56 0
-60 -67 0
-60 -106 0
-60 -137 0
-60 -154 0
-60 -172 0
-71 -37 0
-71 -56 0
-71 -92 0
-83 -106 0
-83 -154 0
-96 -67 0
-96 -92 0
-96 -121 0
-96 -137 0
-96 -154 0
-110 -172 0
-125 -79 0
-125 -92 0
-125 -121 0
-125 -154 0
-125 -172 0
-141 -106 0
-141 -121 0
-158 -106 0
-158 -154 0
-195 -172 0
-215 -154 0
-26 -12 0
-26 -30 0
-26 -38 0
-26 -47 0
-26 -173 0
-26 -192 0
-33 -23 0
-33 -57 0
-33 -68 0
-33 -93 0
-33 -122 0
-33 -173 0
-41 -23 0
-41 -38 0
-41 -80 0
-41 -155 0
-41 -173 0
-41 -192 0
-50 -38 0
-50 -68 0
-50 -107 0
-50 -138 0
-60 -38 0
-60 -68 0
-60 -80 0
-60 -122 0
-60 -155 0
-60 -173 0
-60 -192 0
-71 -47 0
-71 -68 0
-71 -107 0
-83 -122 0
-83 -173 0
-96 -80 0
-96 -107 0
-96 -138 0
-96 -155 0
-96 -173 0
-110 -192 0
-125 -93 0
-125 -107 0
-125 -138 0
-125 -173 0
-125 -192 0
-141 -122 0
-141 -138 0
-158 -122 0
-158 -173 0
-195 -192 0
-215 -173 0
-26 -18 0
-26 -39 0
-26 -48 0
-26 -58 0
-26 -193 0
-26 -213 0
-33 -31 0
-33 -69 0
-33 -81 0
-33 -108 0
-33 -139 0
-33 -193 0
-41 -31 0
-41 -48 0
-41 -94 0
-41 -174 0
-41 -193 0
-41 -213 0
-50 -48 0
-50 -81 0
-50 -123 0
-50 -156 0
-60 -48 0
-60 -81 0
-60 -94 0
-60 -139 0
-60 -174 0
-60 -193 0
-60 -213 0
-71 -58 0
-71 -81 0
-71 -123 0
-83 -139 0
-83 -193 0
-96 -94 0
-96 -123 0
-96 -156 0
-96 -174 0
-96 -193 0
-110 -213 0
-125 -108 0
-125 -123 0
-125 -156 0
-125 -193 0
-125 -213 0
-141 -139 0
-141 -156 0
-158 -139 0
-158 -193 0
-195 -213 0
-215 -193 0
-26 -25 0
-26 -49 0
-26 -59 0
-26 -70 0
-26 -214 0
-26 -235 0
-33 -40 0
-33 -82 0
-33 -95 0
-33 -124 0
-33 -157 0
-33 -214 0
-41 -40 0
-41 -59 0
-41 -109 0
-41 -194 0
-41 -214 0
-41 -235 0
-50 -59 0
-50 -95 0
-50 -140 0
-50 -175 0
-60 -59 0
-60 -95 0
-60 -109 0
-60 -157 0
-60 -194 0
-60 -214 0
-60 -235 0
-71 -70 0
-71 -95 0
-71 -140 0
-83 -157 0
-83 -214 0
-96 -109 0
-96 -140 0
-96 -175 0
-96 -194 0
-96 -214 0
-110 -235 0
-125 -124 0
-125 -140 0
-125 -175 0
-125 -214 0
-125 -235 0
-141 -157 0
-141 -175 0
-158 -157 0
-158 -214 0
-195 -235 0
-215 -214 0
-26 -42 0
-26 -72 0
-26 -84 0
-26 -97 0
-26 -259 0
-26 -282 0
-33 -61 0
-33 -111 0
-33 -126 0
-33 -159 0
-33 -196 0
-33 -259 0
-41 -61 0
-41 -84 0
-41 -142 0
-41 -237 0
-41 -259 0
-41 -282 0
-50 -84 0
-50 -126 0
-50 -177 0
-50 -216 0
-60 -84 0
-60 -126 0
-60 -142 0
-60 -196 0
-60 -237 0
-60 -259 0
-60 -282 0
-71 -97 0
-71 -126 0
-71 -177 0
-83 -196 0
-83 -259 0
-96 -142 0
-96 -177 0
-96 -216 0
-96 -237 0
-96 -259 0
-110 -282 0
-125 -159 0
-125 -177 0
-125 -216 0
-125 -259 0
-125 -282 0
-141 -196 0
-141 -216 0
-158 -196 0
-158 -259 0
-195 -282 0
-215 -259 0
-34 -7 0
-34 -22 0
-34 -29 0
-34 -37 0
-34 -154 0
-34 -172 0
-42 -16 0
-42 -46 0
-42 -56 0
-42 -79 0
-42 -106 0
-42 -154 0
-51 -16 0
-51 -29 0
-51 -67 0
-51 -137 0
-51 -154 0
-51 -172 0
-61 -29 0
-61 -56 0
-61 -92 0
-61 -121 0
-72 -29 0
-72 -56 0
-72 -67 0
-72 -106 0
-72 -137 0
-72 -154 0
-72 -172 0
-84 -37 0
-84 -56 0
-84 -92 0
-97 -106 0
-97 -154 0
-111 -67 0
-111 -92 0
-111 -121 0
-111 -137 0
-111 -154 0
-126 -172 0
-142 -79 0
-142 -92 0
-142 -121 0
-142 -154 0
-142 -172 0
-159 -106 0
-159 -121 0
-177 -106 0
-177 -154 0
-216 -172 0
-237 -154 0
-34 -12 0
-34 -30 0
-34 -38 0
-34 -47 0
-34 -173 0
-34 -192 0
-42 -23 0
-42 -57 0
-42 -68 0
-42 -93 0
-42 -122 0
-42 -173 0
-51 -23 0
-51 -38 0
-51 -80 0
-51 -155 0
-51 -173 0
-51 -192 0
-61 -38 0
-61 -68 0
-61 -107 0
-61 -138 0
-72 -38 0
-72 -68 0
-72 -80 0
-72 -122 0
-72 -155 0
-72 -173 0
-72 -192 0
-84 -47 0
-84 -68 0
-84 -107 0
-97 -122 0
-97 -173 0
-111 -80 0
-111 -107 0
-111 -138 0
-111 -155 0
-111 -173 0
-126 -192 0
-142 -93 0
-142 -107 0
-142 -138 0
-142 -173 0
-142 -192 0
-159 -122 0
-159 -138 0
-177 -122 0
-177 -173 0
-216 -192 0
-237 -173 0
-34 -18 0
-34 -39 0
-34 -48 0
-34 -58 0
-34 -193 0
-34 -213 0
-42 -31 0
-42 -69 0
-42 -81 0
-42 -108 0
-42 -139 0
-42 -193 0
-51 -31 0
-51 -48 0
-51 -94 0
-51 -174 0
-51 -193 0
-51 -213 0
-61 -48 0
-61 -81 0
-61 -123 0
-61 -156 0
-72 -48 0
-72 -81 0
-72 -94 0
-72 -139 0
-72 -174 0
-72 -193 0
-72 -213 0
-84 -58 0
-84 -81 0
-84 -123 0
-97 -139 0
-97 -193 0
-111 -94 0
-111 -123 0
-111 -156 0
-111 -174 0
-111 -193 0
-126 -213 0
-142 -108 0
-142 -123 0
-142 -156 0
-142 -193 0
-142 -213 0
-159 -139 0
-159 -156 0
-177 -139 0
-177 -193 0
-216 -213 0
-237 -193 0
-34 -25 0
-34 -49 0
-34 -59 0
-34 -70 0
-34 -214 0
-34 -235 0
-42 -40 0
-42 -82 0
-42 -95 0
-42 -124 0
-42 -157 0
-42 -214 0
-51 -40 0
-51 -59 0
-51 -109 0
-51 -194 0
-51 -214 0
-51 -235 0
-61 -59 0
-61 -95 0
-61 -140 0
-61 -175 0
-72 -59 0
-72 -95 0
-72 -109 0
-72 -157 0
-72 -194 0
-72 -214 0
-72 -235 0
-84 -70 0
-84 -95 0
-84 -140 0
-97 -157 0
-97 -214 0
-111 -109 0
-111 -140 0
-111 -175 0
-111 -194 0
-111 -214 0
-126 -235 0
-142 -124 0
-142 -140 0
-142 -175 0
-142 -214 0
-142 -235 0
-159 -157 0
-159 -175 0
-177 -157 0
-177 -214 0
-216 -235 0
-237 -214 0
-34 -33 0
-34 -60 0
-34 -71 0
-34 -83 0
-34 -236 0
-34 -258 0
-42 -50 0
-42 -96 0
-42 -110 0
-42 -141 0
-42 -176 0
-42 -236 0
-51 -50 0
-51 -71 0
-51 -125 0
-51 -215 0
-51 -236 0
-51 -258 0
-61 -71 0
-61 -110 0
-61 -158 0
-61 -195 0
-72 -71 0
-72 -110 0
-72 -125 0
-72 -176 0
-72 -215 0
-72 -236 0
-72 -258 0
-84 -83 0
-84 -110 0
-84 -158 0
-97 -176 0
-97 -236 0
-111 -125 0
-111 -158 0
-111 -195 0
-111 -215 0
-111 -236 0
-126 -258 0
-142 -141 0
-142 -158 0
-142 -195 0
-142 -236 0
-142 -258 0
-159 -176 0
-159 -195 0
-177 -176 0
-177 -236 0
-216 -258 0
-237 -236 0
